RAW/CMTX/fspd/CMT2X.vrp_seed-2.out
684.2114439	2.077	20.38
