RAW/CMTX/fspd/CMT2X.vrp_seed-2.sol
Route #1: 51 33 1 73 62 28 74 2 68 75
Route #2: 6 16 63 23 56 41 43 42 64 22 61 21 47 48 30
Route #3: 4 45 27 52 8 46 34 67
Route #4: 26 12 58 10 72 39 9 32 44 40 17
Route #5: 53 11 66 65 38 31 55 25 50 18 24 49 3
Route #6: 7 35 14 59 19 54 13 57 15 37 20 70 60 71 69 36 5 29
Cost 684.211444